(set-info :smt-lib-version 2.6)
(set-info :category "crafted")
(set-logic QF_FFA)
(define-sort FF0 () (_ FiniteField 52435875175126190479447740508185965837690552500527637822603658699938581184513))
(declare-fun d () Bool)
(declare-fun a () Bool)
(declare-fun c () Bool)
(declare-fun b () Bool)
(declare-fun return_n2 () FF0)
(declare-fun mul_n30 () FF0)
(declare-fun mul_n15 () FF0)
(declare-fun mul_n17 () FF0)
(declare-fun mul_n29 () FF0)
(declare-fun mul_n28 () FF0)
(declare-fun mul_n6 () FF0)
(declare-fun mul_n5 () FF0)
(declare-fun mul_n16 () FF0)
(declare-fun mul_n8 () FF0)
(declare-fun mul_n27 () FF0)
(declare-fun mul_n26 () FF0)
(declare-fun mul_n9 () FF0)
(declare-fun mul_n25 () FF0)
(declare-fun c_n1 () FF0)
(declare-fun mul_n24 () FF0)
(declare-fun mul_n11 () FF0)
(declare-fun a_n4 () FF0)
(declare-fun mul_n23 () FF0)
(declare-fun mul_n22 () FF0)
(declare-fun mul_n21 () FF0)
(declare-fun mul_n20 () FF0)
(declare-fun mul_n10 () FF0)
(declare-fun mul_n19 () FF0)
(declare-fun mul_n18 () FF0)
(declare-fun d_n0 () FF0)
(declare-fun mul_n12 () FF0)
(declare-fun mul_n14 () FF0)
(declare-fun b_n3 () FF0)
(declare-fun mul_n7 () FF0)
(assert 
  (let ((let0 d))
  (let ((let1 a))
  (let ((let2 c))
  (let ((let3 (=> let1 let2)))
  (let ((let4 b))
  (let ((let5 (ite let4 let1 let3)))
  (let ((let6 (and let5 let0 let4)))
  (let ((let7 (ite let0 let6 let5)))
  (let ((let8 (= let2 let7)))
  (let ((let9 (ite let7 let8 let1)))
  (let ((let10 (=> let1 let9)))
  (let ((let11 (ite let4 let6 let6)))
  (let ((let12 (and let11 let3 let11)))
  (let ((let13 (ite let12 let10 let5)))
  (let ((let14 (and let13 let10)))
  (let ((let15 (and let14 let0)))
  (let ((let16 (and let8 let3 let8 let9 let3 let6 let9 let2 let7 let5 let11)))
  (let ((let17 (ite let13 let16 let14)))
  (let ((let18 (= let17 let12)))
  (let ((let19 (or let18 let15)))
  (let ((let20 return_n2))
  (let ((let21 (as ff1 FF0)))
  (let ((let22 (= let21 let20)))
  (let ((let23 (= let22 let19)))
  (let ((let24 (as ff0 FF0)))
  (let ((let25 (= let24 let20)))
  (let ((let26 (or let22 let25)))
  (let ((let27 (and let26 let23)))
  (let ((let28 mul_n30))
  (let ((let29 mul_n15))
  (let ((let30 (as ff2 FF0)))
  (let ((let31 mul_n17))
  (let ((let32 (ff.mul let31 let30)))
  (let ((let33 mul_n29))
  (let ((let34 (ff.mul let33 let30)))
  (let ((let35 (ff.add let34 let32)))
  (let ((let36 (ff.mul let35 let29)))
  (let ((let37 (= let36 let28)))
  (let ((let38 (as ff52435875175126190479447740508185965837690552500527637822603658699938581184512 FF0)))
  (let ((let39 (ff.mul let31 let38)))
  (let ((let40 mul_n28))
  (let ((let41 (ff.add let40 let39)))
  (let ((let42 mul_n6))
  (let ((let43 mul_n5))
  (let ((let44 (ff.mul let43 let38)))
  (let ((let45 mul_n16))
  (let ((let46 (ff.add let45 let44 let42 let21)))
  (let ((let47 (ff.mul let46 let41)))
  (let ((let48 (= let47 let33)))
  (let ((let49 mul_n8))
  (let ((let50 mul_n27))
  (let ((let51 (ff.mul let50 let49)))
  (let ((let52 (= let51 let40)))
  (let ((let53 (ff.add let44 let42 let21)))
  (let ((let54 mul_n26))
  (let ((let55 (ff.mul let54 let53)))
  (let ((let56 (= let55 let50)))
  (let ((let57 mul_n9))
  (let ((let58 (ff.add let57 let44 let42 let21)))
  (let ((let59 mul_n25))
  (let ((let60 (ff.mul let59 let58)))
  (let ((let61 (= let60 let54)))
  (let ((let62 c_n1))
  (let ((let63 mul_n24))
  (let ((let64 (ff.mul let63 let62)))
  (let ((let65 (= let64 let59)))
  (let ((let66 mul_n11))
  (let ((let67 a_n4))
  (let ((let68 (ff.add let67 let66)))
  (let ((let69 mul_n23))
  (let ((let70 (ff.mul let69 let68)))
  (let ((let71 (= let70 let63)))
  (let ((let72 mul_n22))
  (let ((let73 (ff.mul let72 let49)))
  (let ((let74 (= let73 let69)))
  (let ((let75 (ff.add let44 let21)))
  (let ((let76 mul_n21))
  (let ((let77 (ff.mul let76 let75)))
  (let ((let78 (= let77 let72)))
  (let ((let79 mul_n20))
  (let ((let80 (ff.mul let79 let68)))
  (let ((let81 (= let80 let76)))
  (let ((let82 (ff.mul let42 let38)))
  (let ((let83 (ff.mul let57 let38)))
  (let ((let84 (ff.mul let62 let38)))
  (let ((let85 mul_n10))
  (let ((let86 (ff.add let43 let85 let84 let83 let82)))
  (let ((let87 mul_n19))
  (let ((let88 (ff.mul let87 let86)))
  (let ((let89 (= let88 let79)))
  (let ((let90 (ff.mul let86 let75)))
  (let ((let91 (= let90 let87)))
  (let ((let92 mul_n18))
  (let ((let93 d_n0))
  (let ((let94 (ff.mul let31 let93)))
  (let ((let95 (= let94 let92)))
  (let ((let96 mul_n12))
  (let ((let97 (ff.mul let96 let38)))
  (let ((let98 (ff.add let97 let21)))
  (let ((let99 (ff.mul let46 let98)))
  (let ((let100 (= let99 let31)))
  (let ((let101 (ff.add let97 let43 let82)))
  (let ((let102 (ff.mul let29 let101)))
  (let ((let103 (= let102 let45)))
  (let ((let104 mul_n14))
  (let ((let105 (ff.mul let104 let49)))
  (let ((let106 (= let105 let29)))
  (let ((let107 (ff.mul let49 let75)))
  (let ((let108 (= let107 let104)))
  (let ((let109 (ff.mul let66 let38)))
  (let ((let110 (ff.mul let67 let38)))
  (let ((let111 (ff.add let110 let109 let21)))
  (let ((let112 (ff.mul let67 let111)))
  (let ((let113 (= let112 let96)))
  (let ((let114 (ff.add let43 let85 let110 let84 let83 let82)))
  (let ((let115 (ff.mul let58 let114)))
  (let ((let116 (= let115 let66)))
  (let ((let117 (ff.mul let62 let30)))
  (let ((let118 (ff.mul let117 let58)))
  (let ((let119 (= let118 let85)))
  (let ((let120 (ff.add let49 let43 let82 let38)))
  (let ((let121 (ff.mul let93 let120)))
  (let ((let122 (= let121 let57)))
  (let ((let123 b_n3))
  (let ((let124 mul_n7))
  (let ((let125 (ff.mul let124 let123)))
  (let ((let126 (= let125 let49)))
  (let ((let127 (ff.mul let53 let93)))
  (let ((let128 (= let127 let124)))
  (let ((let129 (ff.add let67 let43 let38)))
  (let ((let130 (ff.mul let123 let129)))
  (let ((let131 (= let130 let42)))
  (let ((let132 (ff.add let84 let21)))
  (let ((let133 (ff.mul let67 let132)))
  (let ((let134 (= let133 let43)))
  (let ((let135 (and let134 let131 let128 let126 let122 let119 let116 let113 let108 let106 let103 let100 let95 let91 let89 let81 let78 let74 let71 let65 let61 let56 let52 let48 let37)))
  (let ((let136 (ite let1 let21 let24)))
  (let ((let137 (= let67 let136)))
  (let ((let138 (ite let0 let21 let24)))
  (let ((let139 (= let93 let138)))
  (let ((let140 (ite let2 let21 let24)))
  (let ((let141 (= let62 let140)))
  (let ((let142 (ite let4 let21 let24)))
  (let ((let143 (= let123 let142)))
  (let ((let144 (and let143 let141 let139 let137)))
  (let ((let145 (and let144 let135)))
  (let ((let146 (=> let145 let27)))
  (let ((let147 (not let146)))
  let147
))))))))))))))))))))))))))))))))))))))))))))))))))))))))))))))))))))))))))))))))))))))))))))))))))))))))))))))))))))))))))))))))))))))))))))))))))))
)
(check-sat)
